nbObj= 60;
Capacity= 105;
Profit =[ 78,16,86,39,68,21,85,86,64,51,22,11,93,90,63,26,92,39,10,74,14,10,70,47,99,35,55,102,90,70,101,97,75,105,83,99,109,98,41,49,80,63,33,17,59,12,53,87,12,48,71,28,57,60,108,41,29,57,71,21];
Weight =[ 42,48,35,44,25,28,35,51,50,36,36,48,28,38,34,45,24,34,46,22,22,39,27,48,48,48,52,37,36,38,49,48,47,35,29,32,45,45,34,49,48,35,32,50,50,40,43,43,42,52,38,25,28,25,31,48,42,47,25,44];
